p tw 52 104
1 2
1 3
1 6
1 7
2 4
2 6
2 10
11 13
12 17
13 18
14 17
14 18
15 19
15 21
15 23
16 20
16 22
16 24
17 21
17 26
18 22
18 27
19 23
19 25
20 24
20 28
3 11
3 5
3 7
21 23
21 26
22 24
22 27
23 25
24 28
25 29
25 33
26 31
26 35
27 32
27 36
28 30
28 34
29 31
29 33
29 37
30 32
30 34
30 38
4 12
4 8
4 10
31 35
31 37
32 36
32 38
33 37
33 44
34 38
34 45
35 39
35 40
36 39
36 41
37 44
38 45
39 46
39 47
40 42
40 44
40 48
5 11
5 13
5 9
41 43
41 45
41 49
42 46
42 48
42 50
43 47
43 49
43 51
44 48
45 49
46 50
46 52
47 51
47 52
48 50
49 51
50 52
6 14
6 10
51 52
7 11
7 14
8 12
8 15
8 19
9 13
9 16
9 20
10 12
